NAME : input200_10.txt .out.tour
COMMENT : Tour for input200_10.txt .tsp (Length 2915.82)
TYPE : TOUR
DIMENSION : 200
TOUR_SECTION
1
112
42
68
82
86
8
15
12
25
31
33
127
135
69
17
85
154
188
26
47
132
103
113
90
37
32
78
87
101
169
44
49
52
4
19
104
148
79
170
184
14
114
164
160
2
59
96
145
143
28
56
153
45
107
150
77
165
199
196
111
11
16
115
67
91
20
141
159
36
63
76
55
106
171
118
72
60
182
194
66
6
123
38
34
27
190
41
95
43
189
192
64
179
195
73
18
46
21
94
30
54
109
35
168
176
105
39
3
7
121
158
108
185
136
119
93
97
84
131
48
102
116
126
163
125
181
61
162
173
161
51
13
133
58
166
89
29
71
140
200
134
122
62
144
40
5
110
156
120
98
137
130
124
177
50
70
57
152
23
198
75
174
65
146
147
10
180
117
24
178
88
128
155
22
142
9
139
74
191
151
149
186
129
80
53
99
100
92
138
193
172
183
187
167
81
175
157
197
83
1
